wcsp 100 3 501 512409557603043100
3 3 3 3 3 3 3 3 3 3 3 3 3 3 3 3 3 3 3 3 3 3 3 3 3 3 3 3 3 3 3 3 3 3 3 3 3 3 3 3 3 3 3 3 3 3 3 3 3 3 3 3 3 3 3 3 3 3 3 3 3 3 3 3 3 3 3 3 3 3 3 3 3 3 3 3 3 3 3 3 3 3 3 3 3 3 3 3 3 3 3 3 3 3 3 3 3 3 3 3
2 59 85 0 9
0 0 2
0 1 3
0 2 0
1 0 3
1 1 2
1 2 0
2 0 0
2 1 0
2 2 2
2 19 20 0 9
0 0 2
0 1 0
0 2 1
1 0 2
1 1 0
1 2 0
2 0 3
2 1 0
2 2 2
2 72 86 0 9
0 0 3
0 1 0
0 2 0
1 0 3
1 1 0
1 2 2
2 0 3
2 1 0
2 2 1
2 0 49 0 9
0 0 0
0 1 0
0 2 3
1 0 1
1 1 0
1 2 1
2 0 2
2 1 0
2 2 2
2 26 50 0 9
0 0 1
0 1 3
0 2 0
1 0 0
1 1 0
1 2 3
2 0 1
2 1 3
2 2 0
2 65 84 0 9
0 0 0
0 1 2
0 2 0
1 0 2
1 1 0
1 2 1
2 0 0
2 1 2
2 2 1
2 8 51 0 9
0 0 0
0 1 3
0 2 0
1 0 1
1 1 3
1 2 0
2 0 1
2 1 0
2 2 1
2 1 63 0 9
0 0 0
0 1 0
0 2 2
1 0 2
1 1 2
1 2 3
2 0 0
2 1 0
2 2 1
2 71 94 0 9
0 0 0
0 1 2
0 2 0
1 0 3
1 1 2
1 2 0
2 0 2
2 1 2
2 2 0
2 3 13 0 9
0 0 2
0 1 1
0 2 0
1 0 2
1 1 0
1 2 0
2 0 1
2 1 0
2 2 2
2 54 73 0 9
0 0 2
0 1 0
0 2 2
1 0 0
1 1 0
1 2 2
2 0 3
2 1 1
2 2 0
2 22 99 0 9
0 0 2
0 1 0
0 2 0
1 0 2
1 1 0
1 2 0
2 0 3
2 1 2
2 2 1
2 75 88 0 9
0 0 0
0 1 0
0 2 1
1 0 0
1 1 2
1 2 1
2 0 3
2 1 0
2 2 2
2 39 69 0 9
0 0 0
0 1 0
0 2 2
1 0 0
1 1 2
1 2 0
2 0 2
2 1 3
2 2 2
2 58 94 0 9
0 0 3
0 1 0
0 2 2
1 0 1
1 1 1
1 2 0
2 0 0
2 1 1
2 2 0
2 5 22 0 9
0 0 3
0 1 1
0 2 1
1 0 0
1 1 0
1 2 0
2 0 0
2 1 1
2 2 3
2 24 28 0 9
0 0 3
0 1 2
0 2 0
1 0 2
1 1 0
1 2 3
2 0 2
2 1 0
2 2 0
2 28 64 0 9
0 0 0
0 1 0
0 2 2
1 0 3
1 1 0
1 2 2
2 0 2
2 1 2
2 2 0
2 48 52 0 9
0 0 0
0 1 0
0 2 2
1 0 0
1 1 3
1 2 2
2 0 1
2 1 3
2 2 0
2 88 89 0 9
0 0 0
0 1 0
0 2 0
1 0 3
1 1 2
1 2 3
2 0 3
2 1 2
2 2 0
2 0 58 0 9
0 0 0
0 1 0
0 2 2
1 0 0
1 1 1
1 2 3
2 0 2
2 1 0
2 2 2
2 5 48 0 9
0 0 2
0 1 3
0 2 0
1 0 0
1 1 0
1 2 2
2 0 1
2 1 2
2 2 0
2 1 66 0 9
0 0 1
0 1 1
0 2 0
1 0 3
1 1 3
1 2 0
2 0 1
2 1 0
2 2 0
2 19 98 0 9
0 0 0
0 1 0
0 2 0
1 0 0
1 1 1
1 2 2
2 0 2
2 1 1
2 2 2
2 69 73 0 9
0 0 0
0 1 1
0 2 2
1 0 0
1 1 0
1 2 3
2 0 0
2 1 2
2 2 1
2 16 35 0 9
0 0 1
0 1 0
0 2 2
1 0 0
1 1 2
1 2 0
2 0 0
2 1 3
2 2 1
2 43 89 0 9
0 0 0
0 1 3
0 2 1
1 0 0
1 1 0
1 2 0
2 0 2
2 1 3
2 2 2
2 80 87 0 9
0 0 0
0 1 1
0 2 3
1 0 0
1 1 0
1 2 1
2 0 0
2 1 1
2 2 1
2 4 17 0 9
0 0 2
0 1 0
0 2 1
1 0 0
1 1 0
1 2 1
2 0 0
2 1 3
2 2 1
2 13 18 0 9
0 0 1
0 1 0
0 2 0
1 0 1
1 1 0
1 2 3
2 0 3
2 1 0
2 2 1
2 32 84 0 9
0 0 2
0 1 2
0 2 2
1 0 0
1 1 0
1 2 0
2 0 3
2 1 0
2 2 2
2 23 76 0 9
0 0 0
0 1 3
0 2 0
1 0 3
1 1 0
1 2 1
2 0 1
2 1 1
2 2 0
2 35 39 0 9
0 0 2
0 1 1
0 2 0
1 0 0
1 1 2
1 2 3
2 0 0
2 1 0
2 2 3
2 4 98 0 9
0 0 1
0 1 0
0 2 2
1 0 0
1 1 0
1 2 1
2 0 0
2 1 1
2 2 2
2 73 95 0 9
0 0 1
0 1 1
0 2 1
1 0 2
1 1 0
1 2 2
2 0 0
2 1 0
2 2 0
2 45 63 0 9
0 0 3
0 1 0
0 2 3
1 0 0
1 1 0
1 2 3
2 0 3
2 1 0
2 2 2
2 14 57 0 9
0 0 0
0 1 2
0 2 2
1 0 0
1 1 0
1 2 3
2 0 0
2 1 2
2 2 3
2 3 43 0 9
0 0 3
0 1 0
0 2 2
1 0 1
1 1 2
1 2 2
2 0 0
2 1 0
2 2 0
2 16 60 0 9
0 0 2
0 1 0
0 2 0
1 0 3
1 1 0
1 2 3
2 0 1
2 1 0
2 2 3
2 29 97 0 9
0 0 1
0 1 0
0 2 3
1 0 0
1 1 2
1 2 0
2 0 1
2 1 0
2 2 3
2 37 83 0 9
0 0 1
0 1 1
0 2 3
1 0 0
1 1 0
1 2 0
2 0 0
2 1 2
2 2 3
2 28 80 0 9
0 0 0
0 1 0
0 2 3
1 0 2
1 1 0
1 2 3
2 0 2
2 1 3
2 2 0
2 69 91 0 9
0 0 1
0 1 0
0 2 2
1 0 2
1 1 0
1 2 2
2 0 0
2 1 0
2 2 3
2 19 48 0 9
0 0 3
0 1 0
0 2 2
1 0 3
1 1 0
1 2 2
2 0 0
2 1 0
2 2 2
2 17 65 0 9
0 0 3
0 1 2
0 2 2
1 0 0
1 1 0
1 2 0
2 0 0
2 1 1
2 2 3
2 75 79 0 9
0 0 3
0 1 0
0 2 0
1 0 0
1 1 1
1 2 2
2 0 2
2 1 0
2 2 2
2 34 90 0 9
0 0 0
0 1 0
0 2 3
1 0 2
1 1 2
1 2 0
2 0 0
2 1 2
2 2 1
2 61 87 0 9
0 0 0
0 1 0
0 2 0
1 0 0
1 1 3
1 2 2
2 0 3
2 1 3
2 2 3
2 28 61 0 9
0 0 3
0 1 0
0 2 2
1 0 0
1 1 1
1 2 0
2 0 2
2 1 0
2 2 2
2 78 95 0 9
0 0 2
0 1 1
0 2 0
1 0 3
1 1 0
1 2 1
2 0 0
2 1 2
2 2 0
2 36 75 0 9
0 0 2
0 1 0
0 2 0
1 0 0
1 1 3
1 2 2
2 0 0
2 1 2
2 2 1
2 9 57 0 9
0 0 0
0 1 0
0 2 1
1 0 1
1 1 3
1 2 2
2 0 0
2 1 0
2 2 1
2 61 86 0 9
0 0 0
0 1 2
0 2 3
1 0 1
1 1 1
1 2 0
2 0 0
2 1 3
2 2 0
2 30 74 0 9
0 0 0
0 1 2
0 2 0
1 0 3
1 1 0
1 2 3
2 0 0
2 1 1
2 2 2
2 30 95 0 9
0 0 0
0 1 0
0 2 0
1 0 3
1 1 1
1 2 0
2 0 3
2 1 3
2 2 3
2 12 24 0 9
0 0 0
0 1 2
0 2 1
1 0 0
1 1 1
1 2 0
2 0 2
2 1 0
2 2 3
2 37 61 0 9
0 0 3
0 1 0
0 2 2
1 0 0
1 1 0
1 2 1
2 0 1
2 1 0
2 2 2
2 15 56 0 9
0 0 0
0 1 1
0 2 3
1 0 1
1 1 1
1 2 0
2 0 1
2 1 0
2 2 0
2 1 17 0 9
0 0 3
0 1 0
0 2 0
1 0 2
1 1 1
1 2 0
2 0 2
2 1 0
2 2 2
2 17 81 0 9
0 0 0
0 1 2
0 2 3
1 0 0
1 1 0
1 2 1
2 0 3
2 1 2
2 2 0
2 23 54 0 9
0 0 0
0 1 2
0 2 1
1 0 0
1 1 0
1 2 3
2 0 2
2 1 1
2 2 0
2 60 81 0 9
0 0 0
0 1 1
0 2 0
1 0 0
1 1 0
1 2 2
2 0 3
2 1 1
2 2 1
2 20 73 0 9
0 0 3
0 1 2
0 2 2
1 0 1
1 1 0
1 2 1
2 0 0
2 1 0
2 2 0
2 50 58 0 9
0 0 0
0 1 2
0 2 2
1 0 0
1 1 0
1 2 1
2 0 2
2 1 3
2 2 0
2 15 18 0 9
0 0 0
0 1 3
0 2 1
1 0 1
1 1 0
1 2 0
2 0 3
2 1 0
2 2 1
2 27 28 0 9
0 0 1
0 1 0
0 2 3
1 0 0
1 1 0
1 2 3
2 0 3
2 1 3
2 2 0
2 45 57 0 9
0 0 2
0 1 0
0 2 0
1 0 3
1 1 2
1 2 0
2 0 0
2 1 2
2 2 3
2 5 80 0 9
0 0 1
0 1 2
0 2 0
1 0 2
1 1 3
1 2 0
2 0 3
2 1 0
2 2 0
2 27 99 0 9
0 0 0
0 1 0
0 2 1
1 0 1
1 1 0
1 2 0
2 0 2
2 1 2
2 2 2
2 15 71 0 9
0 0 0
0 1 3
0 2 0
1 0 0
1 1 0
1 2 2
2 0 2
2 1 2
2 2 1
2 6 23 0 9
0 0 1
0 1 0
0 2 2
1 0 0
1 1 0
1 2 2
2 0 3
2 1 0
2 2 2
2 85 90 0 9
0 0 2
0 1 3
0 2 1
1 0 0
1 1 1
1 2 0
2 0 0
2 1 0
2 2 1
2 39 82 0 9
0 0 3
0 1 0
0 2 1
1 0 3
1 1 0
1 2 1
2 0 1
2 1 0
2 2 0
2 0 56 0 9
0 0 3
0 1 3
0 2 0
1 0 3
1 1 0
1 2 2
2 0 0
2 1 1
2 2 0
2 50 84 0 9
0 0 0
0 1 1
0 2 0
1 0 0
1 1 1
1 2 0
2 0 1
2 1 2
2 2 3
2 21 56 0 9
0 0 0
0 1 2
0 2 0
1 0 3
1 1 1
1 2 3
2 0 0
2 1 2
2 2 0
2 21 92 0 9
0 0 3
0 1 0
0 2 2
1 0 0
1 1 3
1 2 0
2 0 0
2 1 1
2 2 2
2 57 58 0 9
0 0 0
0 1 3
0 2 3
1 0 0
1 1 1
1 2 1
2 0 3
2 1 0
2 2 0
2 13 40 0 9
0 0 0
0 1 0
0 2 0
1 0 0
1 1 1
1 2 3
2 0 2
2 1 3
2 2 2
2 7 10 0 9
0 0 1
0 1 3
0 2 3
1 0 0
1 1 1
1 2 0
2 0 0
2 1 0
2 2 2
2 55 79 0 9
0 0 0
0 1 2
0 2 2
1 0 2
1 1 0
1 2 3
2 0 0
2 1 0
2 2 3
2 37 39 0 9
0 0 1
0 1 0
0 2 0
1 0 2
1 1 0
1 2 2
2 0 2
2 1 0
2 2 2
2 9 12 0 9
0 0 0
0 1 0
0 2 2
1 0 3
1 1 2
1 2 2
2 0 0
2 1 0
2 2 3
2 40 49 0 9
0 0 0
0 1 0
0 2 0
1 0 2
1 1 2
1 2 0
2 0 1
2 1 3
2 2 2
2 12 67 0 9
0 0 2
0 1 0
0 2 2
1 0 1
1 1 1
1 2 0
2 0 0
2 1 0
2 2 3
2 56 97 0 9
0 0 1
0 1 0
0 2 0
1 0 1
1 1 1
1 2 0
2 0 2
2 1 1
2 2 0
2 76 80 0 9
0 0 3
0 1 0
0 2 3
1 0 2
1 1 2
1 2 0
2 0 0
2 1 0
2 2 2
2 7 67 0 9
0 0 1
0 1 2
0 2 0
1 0 2
1 1 0
1 2 0
2 0 1
2 1 0
2 2 3
2 21 53 0 9
0 0 2
0 1 1
0 2 0
1 0 3
1 1 0
1 2 3
2 0 0
2 1 2
2 2 0
2 28 41 0 9
0 0 0
0 1 2
0 2 0
1 0 3
1 1 3
1 2 0
2 0 2
2 1 0
2 2 1
2 10 75 0 9
0 0 1
0 1 0
0 2 3
1 0 2
1 1 0
1 2 3
2 0 0
2 1 0
2 2 3
2 8 68 0 9
0 0 2
0 1 0
0 2 1
1 0 0
1 1 0
1 2 0
2 0 2
2 1 3
2 2 3
2 25 79 0 9
0 0 0
0 1 1
0 2 0
1 0 3
1 1 1
1 2 3
2 0 0
2 1 2
2 2 0
2 33 72 0 9
0 0 3
0 1 0
0 2 3
1 0 2
1 1 0
1 2 1
2 0 0
2 1 0
2 2 2
2 42 85 0 9
0 0 1
0 1 3
0 2 0
1 0 0
1 1 0
1 2 1
2 0 2
2 1 2
2 2 0
2 67 87 0 9
0 0 3
0 1 0
0 2 3
1 0 0
1 1 1
1 2 2
2 0 0
2 1 1
2 2 0
2 16 59 0 9
0 0 1
0 1 1
0 2 0
1 0 1
1 1 2
1 2 0
2 0 0
2 1 1
2 2 0
2 77 94 0 9
0 0 3
0 1 3
0 2 0
1 0 3
1 1 2
1 2 0
2 0 1
2 1 0
2 2 0
2 42 74 0 9
0 0 0
0 1 1
0 2 1
1 0 0
1 1 2
1 2 2
2 0 3
2 1 0
2 2 0
2 15 32 0 9
0 0 3
0 1 0
0 2 0
1 0 1
1 1 2
1 2 3
2 0 1
2 1 0
2 2 0
2 4 25 0 9
0 0 0
0 1 1
0 2 0
1 0 0
1 1 3
1 2 3
2 0 0
2 1 2
2 2 1
2 14 78 0 9
0 0 0
0 1 1
0 2 0
1 0 3
1 1 3
1 2 3
2 0 0
2 1 0
2 2 2
2 12 90 0 9
0 0 2
0 1 0
0 2 3
1 0 2
1 1 0
1 2 0
2 0 0
2 1 3
2 2 2
2 13 24 0 9
0 0 0
0 1 0
0 2 2
1 0 0
1 1 2
1 2 1
2 0 0
2 1 1
2 2 2
2 51 84 0 9
0 0 0
0 1 1
0 2 0
1 0 2
1 1 0
1 2 1
2 0 2
2 1 0
2 2 1
2 34 47 0 9
0 0 3
0 1 0
0 2 0
1 0 1
1 1 2
1 2 2
2 0 3
2 1 0
2 2 0
2 1 58 0 9
0 0 0
0 1 3
0 2 0
1 0 3
1 1 3
1 2 0
2 0 2
2 1 1
2 2 0
2 21 76 0 9
0 0 1
0 1 3
0 2 3
1 0 0
1 1 1
1 2 0
2 0 0
2 1 3
2 2 0
2 19 87 0 9
0 0 0
0 1 2
0 2 3
1 0 0
1 1 0
1 2 1
2 0 1
2 1 1
2 2 0
2 77 88 0 9
0 0 1
0 1 0
0 2 1
1 0 2
1 1 0
1 2 3
2 0 0
2 1 3
2 2 0
2 15 19 0 9
0 0 1
0 1 0
0 2 0
1 0 3
1 1 1
1 2 3
2 0 0
2 1 0
2 2 2
2 6 26 0 9
0 0 0
0 1 0
0 2 3
1 0 0
1 1 0
1 2 2
2 0 1
2 1 1
2 2 3
2 0 98 0 9
0 0 1
0 1 1
0 2 3
1 0 0
1 1 0
1 2 0
2 0 1
2 1 0
2 2 3
2 28 87 0 9
0 0 0
0 1 1
0 2 2
1 0 0
1 1 3
1 2 2
2 0 0
2 1 0
2 2 3
2 26 60 0 9
0 0 3
0 1 0
0 2 0
1 0 1
1 1 2
1 2 0
2 0 0
2 1 2
2 2 3
2 27 95 0 9
0 0 2
0 1 1
0 2 0
1 0 3
1 1 2
1 2 0
2 0 0
2 1 0
2 2 1
2 40 97 0 9
0 0 1
0 1 3
0 2 1
1 0 0
1 1 3
1 2 0
2 0 0
2 1 0
2 2 2
2 56 83 0 9
0 0 0
0 1 0
0 2 1
1 0 2
1 1 0
1 2 1
2 0 0
2 1 3
2 2 2
2 14 90 0 9
0 0 0
0 1 0
0 2 0
1 0 3
1 1 0
1 2 2
2 0 3
2 1 1
2 2 1
2 20 45 0 9
0 0 0
0 1 0
0 2 3
1 0 3
1 1 2
1 2 1
2 0 1
2 1 0
2 2 0
2 56 93 0 9
0 0 0
0 1 3
0 2 3
1 0 0
1 1 3
1 2 0
2 0 0
2 1 2
2 2 1
2 30 65 0 9
0 0 0
0 1 0
0 2 2
1 0 0
1 1 0
1 2 1
2 0 3
2 1 3
2 2 3
2 46 70 0 9
0 0 0
0 1 0
0 2 2
1 0 3
1 1 0
1 2 2
2 0 3
2 1 2
2 2 0
2 18 37 0 9
0 0 0
0 1 2
0 2 0
1 0 1
1 1 2
1 2 1
2 0 0
2 1 2
2 2 0
2 27 74 0 9
0 0 2
0 1 1
0 2 3
1 0 0
1 1 3
1 2 0
2 0 0
2 1 0
2 2 2
2 50 92 0 9
0 0 1
0 1 0
0 2 0
1 0 1
1 1 1
1 2 3
2 0 3
2 1 0
2 2 0
2 9 21 0 9
0 0 1
0 1 2
0 2 2
1 0 2
1 1 0
1 2 0
2 0 0
2 1 0
2 2 2
2 71 85 0 9
0 0 2
0 1 0
0 2 2
1 0 0
1 1 3
1 2 0
2 0 2
2 1 0
2 2 1
2 58 62 0 9
0 0 1
0 1 0
0 2 2
1 0 0
1 1 2
1 2 0
2 0 3
2 1 3
2 2 0
2 12 53 0 9
0 0 2
0 1 0
0 2 0
1 0 2
1 1 2
1 2 1
2 0 0
2 1 0
2 2 2
2 28 56 0 9
0 0 2
0 1 0
0 2 3
1 0 1
1 1 2
1 2 2
2 0 0
2 1 0
2 2 0
2 35 63 0 9
0 0 1
0 1 3
0 2 2
1 0 0
1 1 1
1 2 0
2 0 0
2 1 3
2 2 0
2 38 48 0 9
0 0 1
0 1 1
0 2 1
1 0 0
1 1 0
1 2 1
2 0 0
2 1 1
2 2 0
2 4 33 0 9
0 0 1
0 1 0
0 2 2
1 0 0
1 1 2
1 2 0
2 0 1
2 1 0
2 2 1
2 1 21 0 9
0 0 1
0 1 2
0 2 0
1 0 0
1 1 3
1 2 0
2 0 3
2 1 0
2 2 1
2 46 73 0 9
0 0 0
0 1 1
0 2 0
1 0 3
1 1 1
1 2 1
2 0 3
2 1 0
2 2 0
2 73 92 0 9
0 0 2
0 1 3
0 2 3
1 0 1
1 1 0
1 2 0
2 0 0
2 1 1
2 2 0
2 26 65 0 9
0 0 0
0 1 1
0 2 2
1 0 0
1 1 0
1 2 3
2 0 0
2 1 2
2 2 1
2 5 73 0 9
0 0 1
0 1 3
0 2 3
1 0 0
1 1 0
1 2 0
2 0 0
2 1 3
2 2 1
2 33 91 0 9
0 0 3
0 1 3
0 2 0
1 0 3
1 1 0
1 2 0
2 0 3
2 1 0
2 2 2
2 62 79 0 9
0 0 0
0 1 0
0 2 3
1 0 3
1 1 1
1 2 2
2 0 0
2 1 0
2 2 2
2 41 50 0 9
0 0 0
0 1 2
0 2 2
1 0 0
1 1 0
1 2 3
2 0 2
2 1 1
2 2 0
2 85 99 0 9
0 0 2
0 1 1
0 2 0
1 0 2
1 1 2
1 2 1
2 0 0
2 1 0
2 2 0
2 20 78 0 9
0 0 0
0 1 0
0 2 0
1 0 3
1 1 0
1 2 3
2 0 2
2 1 2
2 2 1
2 38 54 0 9
0 0 1
0 1 2
0 2 3
1 0 1
1 1 0
1 2 1
2 0 0
2 1 0
2 2 0
2 29 98 0 9
0 0 0
0 1 2
0 2 1
1 0 0
1 1 1
1 2 0
2 0 0
2 1 3
2 2 3
2 5 16 0 9
0 0 0
0 1 0
0 2 2
1 0 0
1 1 0
1 2 1
2 0 3
2 1 2
2 2 3
2 8 25 0 9
0 0 3
0 1 1
0 2 0
1 0 0
1 1 1
1 2 0
2 0 0
2 1 3
2 2 3
2 50 94 0 9
0 0 3
0 1 0
0 2 1
1 0 0
1 1 0
1 2 3
2 0 0
2 1 2
2 2 3
2 2 14 0 9
0 0 1
0 1 2
0 2 0
1 0 0
1 1 2
1 2 0
2 0 2
2 1 0
2 2 1
2 35 67 0 9
0 0 0
0 1 0
0 2 1
1 0 0
1 1 0
1 2 2
2 0 3
2 1 2
2 2 2
2 20 40 0 9
0 0 2
0 1 3
0 2 0
1 0 3
1 1 0
1 2 0
2 0 1
2 1 0
2 2 2
2 64 85 0 9
0 0 3
0 1 0
0 2 0
1 0 0
1 1 1
1 2 0
2 0 1
2 1 1
2 2 1
2 57 66 0 9
0 0 1
0 1 0
0 2 0
1 0 0
1 1 1
1 2 2
2 0 0
2 1 1
2 2 3
2 9 65 0 9
0 0 2
0 1 0
0 2 1
1 0 0
1 1 3
1 2 2
2 0 0
2 1 2
2 2 0
2 27 78 0 9
0 0 1
0 1 3
0 2 0
1 0 0
1 1 2
1 2 0
2 0 2
2 1 3
2 2 0
2 22 55 0 9
0 0 0
0 1 2
0 2 1
1 0 1
1 1 0
1 2 2
2 0 3
2 1 0
2 2 0
2 10 74 0 9
0 0 0
0 1 3
0 2 0
1 0 0
1 1 2
1 2 2
2 0 2
2 1 0
2 2 3
2 84 86 0 9
0 0 2
0 1 0
0 2 2
1 0 0
1 1 1
1 2 2
2 0 0
2 1 0
2 2 2
2 62 93 0 9
0 0 2
0 1 3
0 2 0
1 0 2
1 1 2
1 2 0
2 0 0
2 1 0
2 2 2
2 4 82 0 9
0 0 3
0 1 0
0 2 3
1 0 3
1 1 2
1 2 0
2 0 2
2 1 0
2 2 0
2 19 62 0 9
0 0 0
0 1 0
0 2 3
1 0 0
1 1 1
1 2 3
2 0 1
2 1 1
2 2 0
2 37 71 0 9
0 0 2
0 1 1
0 2 3
1 0 0
1 1 3
1 2 1
2 0 0
2 1 0
2 2 0
2 32 69 0 9
0 0 0
0 1 0
0 2 1
1 0 0
1 1 3
1 2 3
2 0 1
2 1 0
2 2 1
2 13 51 0 9
0 0 2
0 1 3
0 2 0
1 0 0
1 1 2
1 2 0
2 0 0
2 1 1
2 2 2
2 29 59 0 9
0 0 0
0 1 0
0 2 1
1 0 3
1 1 0
1 2 3
2 0 1
2 1 3
2 2 0
2 52 91 0 9
0 0 0
0 1 0
0 2 0
1 0 2
1 1 2
1 2 2
2 0 3
2 1 0
2 2 2
2 21 80 0 9
0 0 0
0 1 0
0 2 3
1 0 0
1 1 3
1 2 0
2 0 1
2 1 2
2 2 1
2 51 93 0 9
0 0 0
0 1 3
0 2 0
1 0 1
1 1 1
1 2 1
2 0 2
2 1 0
2 2 0
2 37 74 0 9
0 0 1
0 1 1
0 2 2
1 0 0
1 1 1
1 2 0
2 0 0
2 1 3
2 2 0
2 11 49 0 9
0 0 3
0 1 1
0 2 2
1 0 1
1 1 0
1 2 0
2 0 2
2 1 0
2 2 0
2 9 45 0 9
0 0 1
0 1 0
0 2 2
1 0 1
1 1 0
1 2 2
2 0 1
2 1 0
2 2 0
2 54 68 0 9
0 0 0
0 1 3
0 2 1
1 0 0
1 1 0
1 2 0
2 0 3
2 1 2
2 2 3
2 22 37 0 9
0 0 3
0 1 0
0 2 0
1 0 3
1 1 0
1 2 1
2 0 1
2 1 3
2 2 0
2 5 19 0 9
0 0 1
0 1 3
0 2 3
1 0 1
1 1 0
1 2 0
2 0 0
2 1 2
2 2 0
2 3 89 0 9
0 0 0
0 1 1
0 2 3
1 0 1
1 1 0
1 2 2
2 0 0
2 1 1
2 2 0
2 48 54 0 9
0 0 2
0 1 1
0 2 3
1 0 0
1 1 0
1 2 0
2 0 0
2 1 1
2 2 2
2 45 97 0 9
0 0 0
0 1 3
0 2 2
1 0 2
1 1 0
1 2 0
2 0 2
2 1 2
2 2 0
2 59 78 0 9
0 0 0
0 1 0
0 2 1
1 0 2
1 1 3
1 2 0
2 0 2
2 1 1
2 2 0
2 18 86 0 9
0 0 2
0 1 3
0 2 0
1 0 0
1 1 2
1 2 2
2 0 0
2 1 0
2 2 2
2 44 86 0 9
0 0 0
0 1 1
0 2 0
1 0 0
1 1 1
1 2 1
2 0 2
2 1 1
2 2 0
2 10 95 0 9
0 0 1
0 1 0
0 2 3
1 0 3
1 1 3
1 2 0
2 0 0
2 1 1
2 2 0
2 6 71 0 9
0 0 0
0 1 0
0 2 0
1 0 2
1 1 3
1 2 1
2 0 0
2 1 1
2 2 1
2 58 81 0 9
0 0 1
0 1 0
0 2 2
1 0 0
1 1 0
1 2 0
2 0 1
2 1 3
2 2 3
2 45 67 0 9
0 0 0
0 1 2
0 2 1
1 0 2
1 1 2
1 2 0
2 0 0
2 1 2
2 2 0
2 13 31 0 9
0 0 3
0 1 3
0 2 0
1 0 3
1 1 3
1 2 0
2 0 1
2 1 0
2 2 0
2 16 74 0 9
0 0 2
0 1 0
0 2 2
1 0 0
1 1 0
1 2 2
2 0 2
2 1 2
2 2 0
2 31 53 0 9
0 0 2
0 1 3
0 2 0
1 0 0
1 1 3
1 2 1
2 0 0
2 1 3
2 2 0
2 83 85 0 9
0 0 3
0 1 3
0 2 0
1 0 0
1 1 0
1 2 1
2 0 3
2 1 0
2 2 2
2 2 40 0 9
0 0 0
0 1 0
0 2 1
1 0 0
1 1 0
1 2 1
2 0 3
2 1 3
2 2 2
2 36 87 0 9
0 0 0
0 1 2
0 2 0
1 0 0
1 1 3
1 2 2
2 0 3
2 1 3
2 2 0
2 36 62 0 9
0 0 2
0 1 0
0 2 3
1 0 0
1 1 3
1 2 0
2 0 0
2 1 2
2 2 1
2 57 79 0 9
0 0 1
0 1 2
0 2 3
1 0 0
1 1 0
1 2 0
2 0 1
2 1 1
2 2 0
2 2 91 0 9
0 0 0
0 1 0
0 2 3
1 0 3
1 1 0
1 2 1
2 0 0
2 1 2
2 2 3
2 46 71 0 9
0 0 3
0 1 0
0 2 1
1 0 0
1 1 2
1 2 2
2 0 0
2 1 2
2 2 0
2 9 41 0 9
0 0 1
0 1 2
0 2 0
1 0 0
1 1 0
1 2 2
2 0 2
2 1 0
2 2 3
2 10 23 0 9
0 0 0
0 1 1
0 2 1
1 0 1
1 1 2
1 2 0
2 0 0
2 1 3
2 2 0
2 2 45 0 9
0 0 0
0 1 0
0 2 2
1 0 3
1 1 2
1 2 3
2 0 2
2 1 0
2 2 0
2 27 30 0 9
0 0 0
0 1 3
0 2 0
1 0 2
1 1 0
1 2 0
2 0 3
2 1 3
2 2 1
2 33 54 0 9
0 0 3
0 1 2
0 2 2
1 0 1
1 1 0
1 2 0
2 0 0
2 1 0
2 2 3
2 59 98 0 9
0 0 2
0 1 3
0 2 0
1 0 0
1 1 2
1 2 0
2 0 0
2 1 1
2 2 3
2 94 99 0 9
0 0 0
0 1 3
0 2 0
1 0 2
1 1 3
1 2 2
2 0 0
2 1 3
2 2 0
2 33 87 0 9
0 0 0
0 1 2
0 2 0
1 0 3
1 1 0
1 2 0
2 0 2
2 1 1
2 2 3
2 65 74 0 9
0 0 0
0 1 1
0 2 3
1 0 0
1 1 1
1 2 0
2 0 2
2 1 2
2 2 0
2 11 66 0 9
0 0 0
0 1 3
0 2 1
1 0 0
1 1 1
1 2 0
2 0 0
2 1 3
2 2 3
2 21 51 0 9
0 0 0
0 1 1
0 2 2
1 0 2
1 1 2
1 2 0
2 0 0
2 1 0
2 2 2
2 52 69 0 9
0 0 1
0 1 3
0 2 0
1 0 0
1 1 0
1 2 0
2 0 1
2 1 2
2 2 2
2 60 62 0 9
0 0 3
0 1 0
0 2 3
1 0 0
1 1 2
1 2 2
2 0 3
2 1 0
2 2 0
2 60 76 0 9
0 0 0
0 1 3
0 2 3
1 0 0
1 1 1
1 2 0
2 0 1
2 1 2
2 2 0
2 47 68 0 9
0 0 0
0 1 1
0 2 3
1 0 2
1 1 3
1 2 0
2 0 0
2 1 0
2 2 3
2 79 81 0 9
0 0 3
0 1 2
0 2 3
1 0 0
1 1 1
1 2 0
2 0 0
2 1 2
2 2 0
2 6 40 0 9
0 0 1
0 1 1
0 2 0
1 0 1
1 1 3
1 2 0
2 0 3
2 1 0
2 2 0
2 1 69 0 9
0 0 0
0 1 0
0 2 3
1 0 3
1 1 3
1 2 0
2 0 2
2 1 0
2 2 2
2 79 90 0 9
0 0 3
0 1 0
0 2 0
1 0 1
1 1 3
1 2 0
2 0 0
2 1 3
2 2 2
2 89 91 0 9
0 0 0
0 1 0
0 2 3
1 0 1
1 1 0
1 2 0
2 0 2
2 1 2
2 2 1
2 22 67 0 9
0 0 0
0 1 0
0 2 1
1 0 1
1 1 0
1 2 3
2 0 2
2 1 2
2 2 0
2 13 32 0 9
0 0 0
0 1 2
0 2 0
1 0 0
1 1 2
1 2 2
2 0 1
2 1 1
2 2 0
2 60 65 0 9
0 0 1
0 1 0
0 2 0
1 0 3
1 1 3
1 2 2
2 0 1
2 1 0
2 2 0
2 2 24 0 9
0 0 0
0 1 0
0 2 1
1 0 3
1 1 3
1 2 2
2 0 3
2 1 0
2 2 0
2 44 94 0 9
0 0 0
0 1 2
0 2 0
1 0 0
1 1 0
1 2 1
2 0 3
2 1 3
2 2 2
2 3 84 0 9
0 0 2
0 1 3
0 2 0
1 0 2
1 1 0
1 2 0
2 0 1
2 1 0
2 2 3
2 23 71 0 9
0 0 2
0 1 3
0 2 0
1 0 0
1 1 2
1 2 1
2 0 2
2 1 0
2 2 0
2 24 69 0 9
0 0 2
0 1 3
0 2 0
1 0 0
1 1 2
1 2 2
2 0 1
2 1 0
2 2 0
2 15 62 0 9
0 0 3
0 1 3
0 2 0
1 0 0
1 1 2
1 2 0
2 0 2
2 1 1
2 2 0
2 3 55 0 9
0 0 0
0 1 0
0 2 3
1 0 1
1 1 0
1 2 3
2 0 3
2 1 1
2 2 0
2 73 74 0 9
0 0 3
0 1 2
0 2 0
1 0 0
1 1 0
1 2 3
2 0 0
2 1 1
2 2 2
2 3 54 0 9
0 0 1
0 1 0
0 2 0
1 0 0
1 1 0
1 2 1
2 0 3
2 1 2
2 2 1
2 9 94 0 9
0 0 0
0 1 2
0 2 1
1 0 0
1 1 1
1 2 0
2 0 0
2 1 1
2 2 2
2 33 81 0 9
0 0 0
0 1 3
0 2 2
1 0 3
1 1 3
1 2 3
2 0 0
2 1 0
2 2 0
2 12 27 0 9
0 0 0
0 1 0
0 2 1
1 0 2
1 1 3
1 2 0
2 0 3
2 1 0
2 2 3
2 34 60 0 9
0 0 1
0 1 0
0 2 0
1 0 0
1 1 0
1 2 3
2 0 3
2 1 2
2 2 2
2 54 92 0 9
0 0 2
0 1 0
0 2 0
1 0 2
1 1 3
1 2 1
2 0 0
2 1 1
2 2 0
2 75 97 0 9
0 0 0
0 1 0
0 2 2
1 0 0
1 1 2
1 2 0
2 0 2
2 1 2
2 2 1
2 56 71 0 9
0 0 1
0 1 0
0 2 0
1 0 2
1 1 0
1 2 1
2 0 0
2 1 3
2 2 2
2 62 87 0 9
0 0 0
0 1 0
0 2 3
1 0 0
1 1 1
1 2 3
2 0 3
2 1 0
2 2 1
2 76 83 0 9
0 0 0
0 1 3
0 2 0
1 0 2
1 1 1
1 2 3
2 0 1
2 1 0
2 2 0
2 3 33 0 9
0 0 3
0 1 2
0 2 0
1 0 1
1 1 1
1 2 0
2 0 2
2 1 0
2 2 0
2 16 52 0 9
0 0 0
0 1 1
0 2 2
1 0 1
1 1 0
1 2 3
2 0 1
2 1 0
2 2 0
2 25 37 0 9
0 0 0
0 1 3
0 2 1
1 0 0
1 1 0
1 2 0
2 0 3
2 1 1
2 2 3
2 63 78 0 9
0 0 0
0 1 1
0 2 1
1 0 0
1 1 3
1 2 3
2 0 3
2 1 0
2 2 0
2 15 29 0 9
0 0 2
0 1 1
0 2 3
1 0 0
1 1 1
1 2 1
2 0 0
2 1 0
2 2 0
2 44 65 0 9
0 0 3
0 1 0
0 2 3
1 0 1
1 1 0
1 2 0
2 0 0
2 1 2
2 2 2
2 57 95 0 9
0 0 2
0 1 0
0 2 0
1 0 0
1 1 1
1 2 3
2 0 1
2 1 0
2 2 2
2 18 59 0 9
0 0 0
0 1 2
0 2 3
1 0 0
1 1 0
1 2 2
2 0 3
2 1 3
2 2 0
2 1 79 0 9
0 0 2
0 1 3
0 2 3
1 0 0
1 1 2
1 2 0
2 0 0
2 1 0
2 2 2
2 21 23 0 9
0 0 0
0 1 0
0 2 2
1 0 3
1 1 0
1 2 2
2 0 2
2 1 0
2 2 3
2 43 50 0 9
0 0 1
0 1 0
0 2 0
1 0 1
1 1 0
1 2 2
2 0 2
2 1 0
2 2 2
2 9 82 0 9
0 0 0
0 1 0
0 2 1
1 0 2
1 1 1
1 2 0
2 0 1
2 1 0
2 2 3
2 14 85 0 9
0 0 0
0 1 3
0 2 0
1 0 3
1 1 1
1 2 1
2 0 1
2 1 0
2 2 0
2 31 92 0 9
0 0 0
0 1 0
0 2 3
1 0 1
1 1 2
1 2 0
2 0 0
2 1 3
2 2 3
2 22 79 0 9
0 0 3
0 1 1
0 2 0
1 0 3
1 1 0
1 2 2
2 0 0
2 1 3
2 2 0
2 37 40 0 9
0 0 0
0 1 1
0 2 2
1 0 2
1 1 0
1 2 3
2 0 0
2 1 1
2 2 0
2 26 52 0 9
0 0 0
0 1 2
0 2 1
1 0 0
1 1 0
1 2 2
2 0 0
2 1 2
2 2 2
2 4 12 0 9
0 0 0
0 1 2
0 2 2
1 0 1
1 1 0
1 2 3
2 0 0
2 1 1
2 2 0
2 43 67 0 9
0 0 2
0 1 0
0 2 2
1 0 0
1 1 2
1 2 2
2 0 0
2 1 0
2 2 3
2 21 33 0 9
0 0 0
0 1 1
0 2 3
1 0 3
1 1 0
1 2 0
2 0 0
2 1 1
2 2 1
2 83 92 0 9
0 0 3
0 1 0
0 2 3
1 0 0
1 1 2
1 2 3
2 0 0
2 1 0
2 2 2
2 58 70 0 9
0 0 3
0 1 2
0 2 0
1 0 0
1 1 3
1 2 2
2 0 1
2 1 0
2 2 0
2 8 76 0 9
0 0 2
0 1 0
0 2 0
1 0 0
1 1 2
1 2 2
2 0 0
2 1 2
2 2 3
2 26 55 0 9
0 0 3
0 1 1
0 2 0
1 0 2
1 1 3
1 2 2
2 0 0
2 1 0
2 2 0
2 4 66 0 9
0 0 3
0 1 3
0 2 2
1 0 0
1 1 0
1 2 2
2 0 0
2 1 2
2 2 0
2 32 44 0 9
0 0 0
0 1 0
0 2 2
1 0 0
1 1 3
1 2 3
2 0 0
2 1 2
2 2 1
2 22 93 0 9
0 0 2
0 1 0
0 2 0
1 0 1
1 1 1
1 2 3
2 0 0
2 1 0
2 2 1
2 30 80 0 9
0 0 0
0 1 0
0 2 1
1 0 0
1 1 2
1 2 2
2 0 2
2 1 3
2 2 0
2 42 46 0 9
0 0 0
0 1 2
0 2 0
1 0 2
1 1 2
1 2 2
2 0 0
2 1 1
2 2 0
2 78 92 0 9
0 0 2
0 1 0
0 2 2
1 0 2
1 1 0
1 2 1
2 0 2
2 1 0
2 2 0
2 0 89 0 9
0 0 2
0 1 0
0 2 0
1 0 0
1 1 1
1 2 0
2 0 3
2 1 3
2 2 3
2 38 76 0 9
0 0 0
0 1 3
0 2 2
1 0 3
1 1 0
1 2 0
2 0 1
2 1 0
2 2 1
2 19 33 0 9
0 0 0
0 1 3
0 2 0
1 0 2
1 1 0
1 2 0
2 0 2
2 1 2
2 2 3
2 53 85 0 9
0 0 1
0 1 0
0 2 1
1 0 1
1 1 3
1 2 0
2 0 0
2 1 0
2 2 2
2 19 21 0 9
0 0 3
0 1 0
0 2 0
1 0 0
1 1 1
1 2 2
2 0 1
2 1 0
2 2 1
2 25 81 0 9
0 0 3
0 1 0
0 2 1
1 0 3
1 1 0
1 2 0
2 0 2
2 1 0
2 2 1
2 8 73 0 9
0 0 1
0 1 0
0 2 0
1 0 1
1 1 2
1 2 0
2 0 0
2 1 2
2 2 2
2 42 79 0 9
0 0 0
0 1 1
0 2 1
1 0 2
1 1 0
1 2 0
2 0 2
2 1 0
2 2 2
2 34 76 0 9
0 0 1
0 1 1
0 2 2
1 0 0
1 1 0
1 2 3
2 0 1
2 1 0
2 2 0
2 6 58 0 9
0 0 1
0 1 0
0 2 0
1 0 2
1 1 3
1 2 3
2 0 3
2 1 0
2 2 0
2 6 99 0 9
0 0 2
0 1 0
0 2 0
1 0 2
1 1 1
1 2 1
2 0 0
2 1 0
2 2 2
2 13 94 0 9
0 0 1
0 1 0
0 2 3
1 0 1
1 1 0
1 2 3
2 0 2
2 1 0
2 2 0
2 28 32 0 9
0 0 0
0 1 3
0 2 0
1 0 0
1 1 2
1 2 2
2 0 2
2 1 0
2 2 3
2 33 88 0 9
0 0 0
0 1 0
0 2 3
1 0 0
1 1 1
1 2 2
2 0 2
2 1 0
2 2 3
2 43 82 0 9
0 0 0
0 1 0
0 2 1
1 0 3
1 1 2
1 2 0
2 0 0
2 1 1
2 2 2
2 5 17 0 9
0 0 3
0 1 1
0 2 0
1 0 3
1 1 0
1 2 0
2 0 0
2 1 3
2 2 3
2 38 50 0 9
0 0 0
0 1 1
0 2 2
1 0 0
1 1 3
1 2 0
2 0 3
2 1 1
2 2 0
2 59 96 0 9
0 0 0
0 1 0
0 2 1
1 0 0
1 1 2
1 2 3
2 0 1
2 1 2
2 2 0
2 17 45 0 9
0 0 0
0 1 2
0 2 2
1 0 2
1 1 1
1 2 0
2 0 1
2 1 0
2 2 0
2 21 44 0 9
0 0 0
0 1 0
0 2 2
1 0 1
1 1 1
1 2 1
2 0 3
2 1 0
2 2 0
2 4 94 0 9
0 0 2
0 1 0
0 2 0
1 0 2
1 1 1
1 2 1
2 0 0
2 1 0
2 2 3
2 42 70 0 9
0 0 0
0 1 0
0 2 2
1 0 0
1 1 1
1 2 1
2 0 3
2 1 3
2 2 0
2 9 79 0 9
0 0 2
0 1 3
0 2 0
1 0 0
1 1 2
1 2 3
2 0 0
2 1 1
2 2 0
2 51 73 0 9
0 0 2
0 1 0
0 2 0
1 0 3
1 1 0
1 2 0
2 0 1
2 1 3
2 2 3
2 18 56 0 9
0 0 2
0 1 3
0 2 1
1 0 1
1 1 1
1 2 0
2 0 0
2 1 0
2 2 0
2 52 59 0 9
0 0 0
0 1 0
0 2 3
1 0 3
1 1 0
1 2 0
2 0 1
2 1 1
2 2 3
2 20 80 0 9
0 0 0
0 1 2
0 2 0
1 0 0
1 1 1
1 2 1
2 0 3
2 1 0
2 2 1
2 11 91 0 9
0 0 3
0 1 2
0 2 0
1 0 0
1 1 0
1 2 2
2 0 0
2 1 3
2 2 2
2 68 74 0 9
0 0 0
0 1 0
0 2 3
1 0 2
1 1 2
1 2 0
2 0 1
2 1 0
2 2 1
2 10 83 0 9
0 0 1
0 1 2
0 2 0
1 0 2
1 1 2
1 2 2
2 0 0
2 1 0
2 2 0
2 2 85 0 9
0 0 2
0 1 0
0 2 3
1 0 0
1 1 2
1 2 0
2 0 1
2 1 2
2 2 0
2 30 34 0 9
0 0 3
0 1 0
0 2 0
1 0 1
1 1 3
1 2 0
2 0 3
2 1 0
2 2 3
2 34 78 0 9
0 0 1
0 1 2
0 2 0
1 0 2
1 1 2
1 2 0
2 0 0
2 1 3
2 2 0
2 33 55 0 9
0 0 0
0 1 2
0 2 0
1 0 1
1 1 3
1 2 0
2 0 2
2 1 1
2 2 0
2 26 82 0 9
0 0 0
0 1 2
0 2 0
1 0 3
1 1 3
1 2 0
2 0 1
2 1 0
2 2 3
2 51 61 0 9
0 0 0
0 1 0
0 2 1
1 0 0
1 1 0
1 2 3
2 0 1
2 1 3
2 2 2
2 0 69 0 9
0 0 3
0 1 0
0 2 3
1 0 0
1 1 2
1 2 2
2 0 0
2 1 0
2 2 3
2 11 17 0 9
0 0 2
0 1 0
0 2 1
1 0 0
1 1 1
1 2 0
2 0 3
2 1 0
2 2 1
2 1 94 0 9
0 0 3
0 1 0
0 2 0
1 0 1
1 1 3
1 2 2
2 0 0
2 1 1
2 2 0
2 58 91 0 9
0 0 1
0 1 3
0 2 3
1 0 0
1 1 3
1 2 0
2 0 1
2 1 0
2 2 0
2 36 95 0 9
0 0 1
0 1 0
0 2 0
1 0 0
1 1 2
1 2 3
2 0 0
2 1 3
2 2 3
2 35 68 0 9
0 0 0
0 1 3
0 2 0
1 0 2
1 1 3
1 2 2
2 0 0
2 1 2
2 2 0
2 26 39 0 9
0 0 2
0 1 3
0 2 0
1 0 3
1 1 0
1 2 2
2 0 3
2 1 0
2 2 0
2 47 71 0 9
0 0 0
0 1 3
0 2 1
1 0 0
1 1 0
1 2 2
2 0 3
2 1 3
2 2 0
2 29 43 0 9
0 0 3
0 1 0
0 2 3
1 0 2
1 1 0
1 2 3
2 0 0
2 1 1
2 2 0
2 59 62 0 9
0 0 3
0 1 1
0 2 0
1 0 3
1 1 0
1 2 0
2 0 2
2 1 0
2 2 3
2 12 18 0 9
0 0 0
0 1 2
0 2 0
1 0 0
1 1 0
1 2 3
2 0 2
2 1 1
2 2 3
2 44 98 0 9
0 0 1
0 1 1
0 2 0
1 0 1
1 1 3
1 2 0
2 0 1
2 1 0
2 2 0
2 42 49 0 9
0 0 0
0 1 0
0 2 0
1 0 1
1 1 3
1 2 2
2 0 3
2 1 0
2 2 3
2 0 86 0 9
0 0 2
0 1 0
0 2 2
1 0 2
1 1 0
1 2 2
2 0 0
2 1 1
2 2 0
2 36 51 0 9
0 0 0
0 1 0
0 2 3
1 0 0
1 1 1
1 2 2
2 0 3
2 1 0
2 2 3
2 13 41 0 9
0 0 2
0 1 3
0 2 2
1 0 0
1 1 0
1 2 2
2 0 2
2 1 0
2 2 0
2 46 60 0 9
0 0 2
0 1 3
0 2 0
1 0 0
1 1 2
1 2 0
2 0 0
2 1 1
2 2 2
2 24 25 0 9
0 0 1
0 1 2
0 2 0
1 0 1
1 1 0
1 2 0
2 0 2
2 1 2
2 2 0
2 20 62 0 9
0 0 0
0 1 0
0 2 3
1 0 3
1 1 1
1 2 0
2 0 0
2 1 2
2 2 3
2 65 68 0 9
0 0 0
0 1 0
0 2 3
1 0 3
1 1 0
1 2 0
2 0 1
2 1 2
2 2 2
2 46 81 0 9
0 0 2
0 1 2
0 2 0
1 0 1
1 1 0
1 2 2
2 0 2
2 1 0
2 2 0
2 20 71 0 9
0 0 2
0 1 1
0 2 0
1 0 0
1 1 0
1 2 1
2 0 2
2 1 0
2 2 3
2 30 82 0 9
0 0 0
0 1 0
0 2 1
1 0 1
1 1 2
1 2 0
2 0 3
2 1 2
2 2 0
2 34 38 0 9
0 0 0
0 1 3
0 2 2
1 0 0
1 1 0
1 2 1
2 0 3
2 1 1
2 2 0
2 21 28 0 9
0 0 2
0 1 2
0 2 0
1 0 0
1 1 0
1 2 0
2 0 3
2 1 3
2 2 2
2 40 67 0 9
0 0 0
0 1 2
0 2 2
1 0 2
1 1 0
1 2 1
2 0 0
2 1 2
2 2 0
2 50 61 0 9
0 0 3
0 1 0
0 2 3
1 0 3
1 1 0
1 2 3
2 0 1
2 1 0
2 2 0
2 34 56 0 9
0 0 0
0 1 2
0 2 2
1 0 0
1 1 3
1 2 0
2 0 2
2 1 0
2 2 3
2 13 53 0 9
0 0 2
0 1 1
0 2 0
1 0 0
1 1 0
1 2 0
2 0 2
2 1 3
2 2 2
2 51 87 0 9
0 0 1
0 1 0
0 2 0
1 0 1
1 1 2
1 2 3
2 0 0
2 1 0
2 2 2
2 10 65 0 9
0 0 0
0 1 0
0 2 1
1 0 1
1 1 0
1 2 0
2 0 1
2 1 3
2 2 2
2 8 77 0 9
0 0 0
0 1 1
0 2 0
1 0 0
1 1 2
1 2 1
2 0 1
2 1 0
2 2 1
2 48 90 0 9
0 0 0
0 1 2
0 2 0
1 0 2
1 1 3
1 2 3
2 0 0
2 1 3
2 2 0
2 76 94 0 9
0 0 1
0 1 1
0 2 2
1 0 3
1 1 0
1 2 0
2 0 0
2 1 2
2 2 0
2 47 88 0 9
0 0 1
0 1 0
0 2 1
1 0 2
1 1 0
1 2 2
2 0 0
2 1 0
2 2 3
2 17 85 0 9
0 0 0
0 1 2
0 2 0
1 0 2
1 1 0
1 2 1
2 0 2
2 1 0
2 2 3
2 14 94 0 9
0 0 0
0 1 0
0 2 1
1 0 0
1 1 3
1 2 0
2 0 3
2 1 3
2 2 3
2 67 85 0 9
0 0 3
0 1 3
0 2 1
1 0 0
1 1 0
1 2 2
2 0 0
2 1 1
2 2 0
2 73 76 0 9
0 0 0
0 1 3
0 2 0
1 0 2
1 1 0
1 2 0
2 0 1
2 1 3
2 2 1
2 54 98 0 9
0 0 2
0 1 0
0 2 3
1 0 0
1 1 2
1 2 0
2 0 2
2 1 0
2 2 1
2 12 99 0 9
0 0 3
0 1 0
0 2 0
1 0 1
1 1 0
1 2 0
2 0 3
2 1 1
2 2 1
2 24 87 0 9
0 0 2
0 1 2
0 2 3
1 0 1
1 1 0
1 2 0
2 0 2
2 1 0
2 2 0
2 5 40 0 9
0 0 1
0 1 0
0 2 2
1 0 3
1 1 0
1 2 0
2 0 3
2 1 0
2 2 1
2 10 78 0 9
0 0 0
0 1 0
0 2 2
1 0 0
1 1 2
1 2 2
2 0 1
2 1 0
2 2 3
2 4 26 0 9
0 0 2
0 1 2
0 2 0
1 0 2
1 1 1
1 2 0
2 0 0
2 1 1
2 2 0
2 25 70 0 9
0 0 0
0 1 2
0 2 1
1 0 0
1 1 3
1 2 3
2 0 3
2 1 0
2 2 0
2 6 95 0 9
0 0 0
0 1 3
0 2 0
1 0 3
1 1 0
1 2 2
2 0 0
2 1 2
2 2 2
2 72 98 0 9
0 0 3
0 1 0
0 2 0
1 0 0
1 1 1
1 2 3
2 0 2
2 1 1
2 2 0
2 8 91 0 9
0 0 0
0 1 0
0 2 0
1 0 1
1 1 2
1 2 0
2 0 3
2 1 1
2 2 1
2 50 76 0 9
0 0 1
0 1 1
0 2 0
1 0 2
1 1 1
1 2 0
2 0 1
2 1 0
2 2 0
2 34 74 0 9
0 0 2
0 1 2
0 2 0
1 0 1
1 1 2
1 2 0
2 0 0
2 1 0
2 2 2
2 47 74 0 9
0 0 0
0 1 3
0 2 2
1 0 0
1 1 1
1 2 0
2 0 0
2 1 2
2 2 3
2 69 87 0 9
0 0 3
0 1 2
0 2 2
1 0 1
1 1 0
1 2 0
2 0 0
2 1 0
2 2 1
2 73 75 0 9
0 0 3
0 1 1
0 2 2
1 0 0
1 1 2
1 2 0
2 0 1
2 1 0
2 2 0
2 58 89 0 9
0 0 0
0 1 0
0 2 3
1 0 1
1 1 0
1 2 1
2 0 1
2 1 1
2 2 0
2 58 77 0 9
0 0 1
0 1 0
0 2 2
1 0 1
1 1 0
1 2 2
2 0 2
2 1 0
2 2 0
2 17 48 0 9
0 0 0
0 1 2
0 2 1
1 0 0
1 1 1
1 2 0
2 0 0
2 1 3
2 2 2
2 72 91 0 9
0 0 1
0 1 0
0 2 3
1 0 3
1 1 0
1 2 0
2 0 3
2 1 0
2 2 1
2 0 80 0 9
0 0 2
0 1 3
0 2 1
1 0 0
1 1 3
1 2 0
2 0 1
2 1 0
2 2 0
2 21 93 0 9
0 0 3
0 1 1
0 2 2
1 0 1
1 1 3
1 2 0
2 0 0
2 1 0
2 2 0
2 31 36 0 9
0 0 3
0 1 0
0 2 0
1 0 2
1 1 0
1 2 3
2 0 1
2 1 0
2 2 2
2 81 90 0 9
0 0 2
0 1 0
0 2 2
1 0 0
1 1 0
1 2 2
2 0 1
2 1 0
2 2 2
2 7 77 0 9
0 0 0
0 1 2
0 2 0
1 0 0
1 1 0
1 2 3
2 0 2
2 1 2
2 2 3
2 16 87 0 9
0 0 1
0 1 0
0 2 2
1 0 1
1 1 3
1 2 2
2 0 0
2 1 0
2 2 0
2 86 96 0 9
0 0 1
0 1 1
0 2 0
1 0 3
1 1 1
1 2 2
2 0 0
2 1 0
2 2 0
2 7 41 0 9
0 0 1
0 1 1
0 2 0
1 0 0
1 1 0
1 2 3
2 0 2
2 1 0
2 2 3
2 30 76 0 9
0 0 0
0 1 1
0 2 1
1 0 2
1 1 3
1 2 0
2 0 2
2 1 0
2 2 0
2 1 43 0 9
0 0 0
0 1 1
0 2 0
1 0 2
1 1 0
1 2 2
2 0 0
2 1 1
2 2 1
2 57 77 0 9
0 0 1
0 1 3
0 2 1
1 0 0
1 1 0
1 2 1
2 0 0
2 1 0
2 2 1
2 42 98 0 9
0 0 1
0 1 1
0 2 3
1 0 3
1 1 0
1 2 0
2 0 0
2 1 0
2 2 1
2 14 58 0 9
0 0 0
0 1 2
0 2 1
1 0 0
1 1 1
1 2 0
2 0 3
2 1 0
2 2 1
2 21 35 0 9
0 0 0
0 1 3
0 2 0
1 0 0
1 1 3
1 2 2
2 0 1
2 1 0
2 2 3
2 6 85 0 9
0 0 2
0 1 0
0 2 0
1 0 2
1 1 0
1 2 1
2 0 0
2 1 3
2 2 2
2 19 38 0 9
0 0 3
0 1 3
0 2 3
1 0 1
1 1 0
1 2 0
2 0 0
2 1 0
2 2 2
2 24 40 0 9
0 0 2
0 1 0
0 2 0
1 0 0
1 1 1
1 2 2
2 0 2
2 1 0
2 2 2
2 37 95 0 9
0 0 0
0 1 1
0 2 0
1 0 0
1 1 3
1 2 3
2 0 3
2 1 0
2 2 1
2 14 70 0 9
0 0 1
0 1 0
0 2 0
1 0 1
1 1 2
1 2 1
2 0 1
2 1 0
2 2 0
2 3 24 0 9
0 0 3
0 1 3
0 2 0
1 0 0
1 1 0
1 2 1
2 0 2
2 1 2
2 2 0
2 2 12 0 9
0 0 0
0 1 3
0 2 0
1 0 2
1 1 0
1 2 3
2 0 1
2 1 1
2 2 0
2 6 76 0 9
0 0 3
0 1 2
0 2 0
1 0 0
1 1 0
1 2 0
2 0 3
2 1 2
2 2 2
2 17 18 0 9
0 0 0
0 1 3
0 2 0
1 0 0
1 1 3
1 2 2
2 0 0
2 1 3
2 2 2
2 34 48 0 9
0 0 2
0 1 0
0 2 3
1 0 0
1 1 0
1 2 2
2 0 1
2 1 0
2 2 1
2 46 65 0 9
0 0 1
0 1 0
0 2 1
1 0 0
1 1 2
1 2 0
2 0 2
2 1 2
2 2 0
2 45 52 0 9
0 0 0
0 1 1
0 2 0
1 0 1
1 1 0
1 2 0
2 0 3
2 1 2
2 2 2
2 10 84 0 9
0 0 2
0 1 3
0 2 0
1 0 2
1 1 0
1 2 3
2 0 1
2 1 0
2 2 0
2 62 92 0 9
0 0 2
0 1 0
0 2 1
1 0 0
1 1 3
1 2 3
2 0 0
2 1 0
2 2 2
2 3 51 0 9
0 0 2
0 1 0
0 2 0
1 0 2
1 1 3
1 2 2
2 0 0
2 1 0
2 2 2
2 51 69 0 9
0 0 0
0 1 3
0 2 0
1 0 0
1 1 0
1 2 1
2 0 3
2 1 2
2 2 1
2 6 96 0 9
0 0 1
0 1 1
0 2 0
1 0 0
1 1 1
1 2 2
2 0 0
2 1 0
2 2 1
2 46 79 0 9
0 0 0
0 1 2
0 2 2
1 0 0
1 1 0
1 2 0
2 0 3
2 1 2
2 2 3
2 4 32 0 9
0 0 1
0 1 0
0 2 0
1 0 0
1 1 1
1 2 3
2 0 0
2 1 3
2 2 1
2 49 71 0 9
0 0 0
0 1 1
0 2 1
1 0 0
1 1 3
1 2 3
2 0 0
2 1 0
2 2 3
2 39 42 0 9
0 0 0
0 1 2
0 2 2
1 0 0
1 1 0
1 2 0
2 0 2
2 1 3
2 2 2
2 21 25 0 9
0 0 0
0 1 1
0 2 1
1 0 0
1 1 3
1 2 0
2 0 0
2 1 1
2 2 2
2 6 8 0 9
0 0 1
0 1 3
0 2 0
1 0 0
1 1 0
1 2 3
2 0 1
2 1 3
2 2 0
2 63 81 0 9
0 0 1
0 1 3
0 2 0
1 0 0
1 1 0
1 2 2
2 0 1
2 1 3
2 2 0
2 18 73 0 9
0 0 2
0 1 2
0 2 3
1 0 0
1 1 0
1 2 0
2 0 2
2 1 0
2 2 3
2 0 19 0 9
0 0 3
0 1 0
0 2 3
1 0 2
1 1 1
1 2 0
2 0 1
2 1 0
2 2 0
1 0 512409557603043100 3
0 2
1 0
2 3
1 1 512409557603043100 3
0 1
1 0
2 2
1 2 512409557603043100 3
0 0
1 1
2 2
1 3 512409557603043100 3
0 3
1 3
2 0
1 4 512409557603043100 3
0 2
1 2
2 0
1 5 512409557603043100 3
0 1
1 0
2 1
1 6 512409557603043100 3
0 0
1 1
2 3
1 7 512409557603043100 3
0 0
1 0
2 0
1 8 512409557603043100 3
0 1
1 0
2 0
1 9 512409557603043100 3
0 2
1 0
2 3
1 10 512409557603043100 3
0 0
1 1
2 2
1 11 512409557603043100 3
0 3
1 0
2 3
1 12 512409557603043100 3
0 0
1 1
2 1
1 13 512409557603043100 3
0 0
1 2
2 3
1 14 512409557603043100 3
0 1
1 0
2 1
1 15 512409557603043100 3
0 0
1 0
2 2
1 16 512409557603043100 3
0 0
1 0
2 1
1 17 512409557603043100 3
0 1
1 2
2 0
1 18 512409557603043100 3
0 2
1 0
2 2
1 19 512409557603043100 3
0 0
1 0
2 0
1 20 512409557603043100 3
0 2
1 1
2 0
1 21 512409557603043100 3
0 1
1 0
2 1
1 22 512409557603043100 3
0 0
1 3
2 1
1 23 512409557603043100 3
0 0
1 1
2 0
1 24 512409557603043100 3
0 0
1 0
2 0
1 25 512409557603043100 3
0 0
1 0
2 0
1 26 512409557603043100 3
0 0
1 2
2 2
1 27 512409557603043100 3
0 0
1 1
2 0
1 28 512409557603043100 3
0 1
1 2
2 0
1 29 512409557603043100 3
0 2
1 3
2 0
1 30 512409557603043100 3
0 2
1 0
2 0
1 31 512409557603043100 3
0 1
1 0
2 0
1 32 512409557603043100 3
0 3
1 1
2 0
1 33 512409557603043100 3
0 2
1 1
2 0
1 34 512409557603043100 3
0 0
1 0
2 0
1 35 512409557603043100 3
0 0
1 0
2 3
1 36 512409557603043100 3
0 0
1 1
2 0
1 37 512409557603043100 3
0 3
1 2
2 0
1 38 512409557603043100 3
0 1
1 2
2 0
1 39 512409557603043100 3
0 0
1 3
2 1
1 40 512409557603043100 3
0 1
1 0
2 2
1 41 512409557603043100 3
0 2
1 0
2 3
1 42 512409557603043100 3
0 3
1 0
2 1
1 43 512409557603043100 3
0 0
1 3
2 3
1 44 512409557603043100 3
0 0
1 0
2 3
1 45 512409557603043100 3
0 0
1 2
2 2
1 46 512409557603043100 3
0 0
1 1
2 1
1 47 512409557603043100 3
0 2
1 2
2 0
1 48 512409557603043100 3
0 2
1 3
2 0
1 49 512409557603043100 3
0 3
1 0
2 3
1 50 512409557603043100 3
0 0
1 1
2 2
1 51 512409557603043100 3
0 0
1 0
2 1
1 52 512409557603043100 3
0 3
1 0
2 2
1 53 512409557603043100 3
0 0
1 1
2 3
1 54 512409557603043100 3
0 1
1 1
2 0
1 55 512409557603043100 3
0 0
1 0
2 2
1 56 512409557603043100 3
0 3
1 0
2 1
1 57 512409557603043100 3
0 2
1 0
2 2
1 58 512409557603043100 3
0 3
1 2
2 0
1 59 512409557603043100 3
0 3
1 0
2 1
1 60 512409557603043100 3
0 1
1 0
2 1
1 61 512409557603043100 3
0 0
1 1
2 2
1 62 512409557603043100 3
0 0
1 3
2 0
1 63 512409557603043100 3
0 0
1 2
2 0
1 64 512409557603043100 3
0 0
1 1
2 2
1 65 512409557603043100 3
0 2
1 1
2 0
1 66 512409557603043100 3
0 0
1 0
2 2
1 67 512409557603043100 3
0 1
1 1
2 0
1 68 512409557603043100 3
0 0
1 0
2 0
1 69 512409557603043100 3
0 0
1 2
2 2
1 70 512409557603043100 3
0 1
1 0
2 0
1 71 512409557603043100 3
0 1
1 0
2 1
1 72 512409557603043100 3
0 2
1 0
2 2
1 73 512409557603043100 3
0 3
1 1
2 0
1 74 512409557603043100 3
0 0
1 0
2 0
1 75 512409557603043100 3
0 1
1 0
2 0
1 76 512409557603043100 3
0 0
1 1
2 0
1 77 512409557603043100 3
0 1
1 2
2 0
1 78 512409557603043100 3
0 3
1 0
2 0
1 79 512409557603043100 3
0 0
1 1
2 0
1 80 512409557603043100 3
0 0
1 1
2 1
1 81 512409557603043100 3
0 0
1 2
2 0
1 82 512409557603043100 3
0 0
1 2
2 1
1 83 512409557603043100 3
0 1
1 0
2 1
1 84 512409557603043100 3
0 1
1 2
2 0
1 85 512409557603043100 3
0 0
1 1
2 0
1 86 512409557603043100 3
0 0
1 0
2 1
1 87 512409557603043100 3
0 0
1 0
2 1
1 88 512409557603043100 3
0 2
1 0
2 1
1 89 512409557603043100 3
0 1
1 1
2 0
1 90 512409557603043100 3
0 3
1 0
2 3
1 91 512409557603043100 3
0 0
1 2
2 1
1 92 512409557603043100 3
0 1
1 0
2 1
1 93 512409557603043100 3
0 3
1 0
2 1
1 94 512409557603043100 3
0 2
1 1
2 0
1 95 512409557603043100 3
0 2
1 3
2 0
1 96 512409557603043100 3
0 1
1 2
2 0
1 97 512409557603043100 3
0 0
1 1
2 2
1 98 512409557603043100 3
0 0
1 1
2 1
1 99 512409557603043100 3
0 0
1 2
2 1
0 55 0
